solution status: gap limit reached
objective value:                          39903.79049
y#1                                                 1 	(obj:5700)
y#2                                                 1 	(obj:5700)
y#3                                                 1 	(obj:5700)
y#4                                                 1 	(obj:5700)
y#6                                                 1 	(obj:5700)
y#7                                                 1 	(obj:5700)
y#9                                                 1 	(obj:5700)
x#1#9                                               1 	(obj:0.02601)
x#2#3                                               1 	(obj:0.07786)
x#3#6                                               1 	(obj:0.02635)
x#4#7                                               1 	(obj:0.08075)
x#5#4                                               1 	(obj:0.03281)
x#6#1                                               1 	(obj:0.0374)
x#7#2                                               1 	(obj:0.05321)
x#8#6                                               1 	(obj:0.00663)
x#9#6                                               1 	(obj:0.03281)
x#10#4                                              1 	(obj:0.02431)
x#11#6                                              1 	(obj:0.03808)
x#12#3                                              1 	(obj:0.08925)
x#13#2                                              1 	(obj:0.04709)
x#14#6                                              1 	(obj:0.01717)
x#15#2                                              1 	(obj:0.08585)
x#16#6                                              1 	(obj:0.01649)
x#17#4                                              1 	(obj:0.02193)
x#18#3                                              1 	(obj:0.05236)
x#19#2                                              1 	(obj:0.07939)
x#20#1                                              1 	(obj:0.06392)
x#21#3                                              1 	(obj:0.1207)
x#22#9                                              1 	(obj:0.13668)
x#23#7                                              1 	(obj:0.04097)
x#24#6                                              1 	(obj:0.03315)
x#25#4                                              1 	(obj:0.01615)
x#26#3                                              1 	(obj:0.00884)
x#27#9                                              1 	(obj:0.03162)
x#28#6                                              1 	(obj:0.04539)
x#29#2                                              1 	(obj:0.02822)
x#30#7                                              1 	(obj:0.05593)
x#31#4                                              1 	(obj:0.00901)
x#32#1                                              1 	(obj:0.01836)
x#33#1                                              1 	(obj:0.05491)
x#34#1                                              1 	(obj:0.06256)
x#35#1                                              1 	(obj:0.05015)
x#36#9                                              1 	(obj:0.03026)
x#37#6                                              1 	(obj:0.08738)
x#38#9                                              1 	(obj:0.01955)
x#39#7                                              1 	(obj:0.09622)
x#40#1                                              1 	(obj:0.03009)
x#41#7                                              1 	(obj:0.02822)
x#42#9                                              1 	(obj:0.06188)
x#43#9                                              1 	(obj:0.0408)
x#44#9                                              1 	(obj:0.02975)
x#45#1                                              1 	(obj:0.03672)
x#46#4                                              1 	(obj:0.01377)
x#47#2                                              1 	(obj:0.05015)
x#48#7                                              1 	(obj:0.02873)
x#49#3                                              1 	(obj:0.05168)
x#50#9                                              1 	(obj:0.05593)
x#51#7                                              1 	(obj:0.0527)
x#52#7                                              1 	(obj:0.02108)
x#53#4                                              1 	(obj:0.03077)
x#54#4                                              1 	(obj:0.02414)
x#55#9                                              1 	(obj:0.02822)
x#56#3                                              1 	(obj:0.00765)
x#57#9                                              1 	(obj:0.14569)
x#58#1                                              1 	(obj:0.03655)
x#59#3                                              1 	(obj:0.00748)
x#60#3                                              1 	(obj:0.051)
x#61#4                                              1 	(obj:0.01632)
x#62#2                                              1 	(obj:0.04607)
x#63#7                                              1 	(obj:0.03638)
x#64#3                                              1 	(obj:0.02312)
x#65#1                                              1 	(obj:0.11373)
x#66#7                                              1 	(obj:0.02125)
x#67#6                                              1 	(obj:0.01479)
x#68#1                                              1 	(obj:0.06494)
x#69#2                                              1 	(obj:0.11186)
x#70#2                                              1 	(obj:0.09877)
x#71#1                                              1 	(obj:0.02652)
x#72#7                                              1 	(obj:0.04675)
x#73#3                                              1 	(obj:0.03757)
x#74#2                                              1 	(obj:0.03145)
x#75#2                                              1 	(obj:0.09894)
x#76#9                                              1 	(obj:0.13158)
x#77#4                                              1 	(obj:0.08517)
x#78#4                                              1 	(obj:0.04063)
x#79#6                                              1 	(obj:0.03434)
x#80#7                                              1 	(obj:0.02159)
